p tw 40 515
0 1
0 2
0 3
0 4
0 5
0 6
0 7
0 8
0 9
0 10
0 11
0 12
0 13
0 14
0 15
0 16
0 17
0 25
0 27
0 28
0 31
0 21
0 26
0 34
0 29
0 35
0 18
0 24
0 36
0 32
0 33
0 23
1 2
1 3
1 4
1 5
1 6
1 11
1 14
1 21
1 24
1 12
1 19
1 22
1 32
1 36
1 15
1 18
1 26
1 28
1 35
1 8
1 13
2 3
2 4
2 5
2 6
2 9
2 27
2 28
2 29
2 30
2 8
2 14
2 16
2 35
2 12
2 18
2 19
2 22
2 34
2 36
2 10
2 26
2 37
2 7
2 11
2 15
2 17
2 20
2 31
2 38
2 24
3 4
3 5
3 6
3 11
3 14
3 21
3 24
3 12
3 19
3 22
3 32
3 36
3 20
3 37
3 8
3 15
3 17
3 23
4 5
4 6
4 8
4 10
4 11
4 13
4 16
4 18
4 15
4 21
4 33
4 36
4 12
4 24
4 27
4 17
4 23
4 32
5 6
5 13
5 14
5 15
5 16
5 17
5 11
5 21
5 24
5 23
5 26
5 32
5 33
5 20
5 30
5 35
5 7
5 31
5 37
6 9
6 27
6 28
6 29
6 30
6 16
6 23
6 26
6 32
6 33
6 18
6 21
6 22
6 35
6 36
6 11
6 24
6 37
6 17
6 38
6 7
6 15
6 20
6 12
6 14
6 19
6 31
6 25
7 8
7 9
7 10
7 11
7 12
7 15
7 16
7 17
7 20
7 33
7 19
7 35
7 23
7 31
7 32
7 37
8 9
8 10
8 11
8 12
8 18
8 19
8 20
8 21
8 22
8 23
8 14
8 17
8 26
8 34
8 16
8 29
8 35
8 15
8 24
8 25
8 27
8 13
8 33
8 36
8 32
8 30
8 37
9 10
9 11
9 12
9 27
9 28
9 29
9 30
9 16
9 25
9 31
9 17
9 33
9 35
9 38
9 24
9 34
9 23
9 36
10 11
10 12
10 13
10 16
10 18
10 14
10 22
10 26
10 34
10 37
10 15
10 28
10 35
10 20
10 30
11 12
11 14
11 21
11 24
11 15
11 23
11 25
11 27
11 18
11 19
11 20
11 28
11 31
11 13
11 16
11 35
11 37
11 33
11 36
11 17
12 19
12 22
12 32
12 36
12 18
12 34
12 20
12 37
12 13
12 21
12 26
12 17
12 25
12 27
12 31
12 39
12 35
12 38
12 24
12 15
12 28
13 14
13 15
13 16
13 17
13 18
13 21
13 25
13 26
13 27
13 32
13 33
13 22
13 28
13 35
13 20
13 30
13 37
14 15
14 16
14 17
14 21
14 24
14 26
14 34
14 29
14 35
14 18
14 19
14 20
14 28
14 31
14 30
14 27
14 32
14 33
14 22
14 37
14 36
15 16
15 17
15 23
15 24
15 25
15 27
15 20
15 21
15 30
15 35
15 18
15 26
15 28
15 33
15 36
15 32
15 19
15 22
16 17
16 25
16 27
16 28
16 31
16 23
16 26
16 32
16 33
16 29
16 35
16 18
16 21
16 22
16 36
16 20
16 24
16 34
16 38
17 18
17 21
17 25
17 26
17 27
17 34
17 33
17 35
17 38
17 20
17 24
17 19
17 31
17 39
17 29
17 37
17 23
17 32
17 22
17 36
18 19
18 20
18 21
18 22
18 23
18 25
18 26
18 27
18 35
18 36
18 28
18 31
18 34
18 32
18 33
19 20
19 21
19 22
19 23
19 28
19 31
19 32
19 36
19 34
19 35
20 21
20 22
20 23
20 28
20 31
20 30
20 35
20 33
20 37
20 25
20 27
20 39
21 22
21 23
21 24
21 25
21 26
21 27
21 34
21 35
21 36
21 30
21 33
21 29
21 37
21 32
22 23
22 35
22 36
22 32
22 34
22 26
22 37
22 28
22 31
23 26
23 32
23 33
23 24
23 25
23 27
23 31
23 37
23 36
24 25
24 27
24 28
24 35
24 37
24 34
24 38
24 36
24 29
25 26
25 27
25 28
25 31
25 34
25 38
25 39
25 36
26 27
26 32
26 33
26 34
26 28
26 35
26 37
27 28
27 29
27 30
27 31
27 35
27 37
27 33
27 38
27 32
27 39
27 34
27 36
28 29
28 30
28 31
28 35
28 37
29 30
29 35
29 37
30 35
30 37
31 39
31 34
31 35
31 38
31 32
31 33
31 37
31 36
32 33
32 36
32 37
33 35
33 38
33 36
33 37
34 36
34 38
34 37
34 35
35 36
35 37
35 38
